c This is UnifRandomKSATGenerator
c uniform random 3-SAT generated instance with: 
c clause length: 3 
c number variables: 20 
c number clauses: 85 
c clause to variable ratio: 4.27 
c random number generator name: SHA1PRNG 
c random number generator provider: SUN 
c random number generator seed: 4101629742485234328 
p cnf 20 85
-4 12 5 0
9 2 13 0
9 4 5 0
18 -11 -20 0
18 3 -5 0
9 2 19 0
-10 -20 -8 0
-3 -4 19 0
-10 -12 -13 0
-12 -13 -8 0
8 -10 2 0
-2 10 11 0
-10 3 -6 0
-10 2 -12 0
8 17 -7 0
-9 -4 15 0
16 -10 -12 0
-2 17 -4 0
18 -20 15 0
18 11 12 0
-9 -19 -15 0
10 7 -16 0
-11 -13 -14 0
-17 -20 -8 0
8 -19 -7 0
9 -3 -13 0
-9 10 -20 0
9 -3 15 0
-17 -20 14 0
-5 -6 14 0
-19 -12 -14 0
8 -20 14 0
19 -13 -14 0
8 -20 15 0
10 -15 14 0
-11 -5 -6 0
-18 2 -12 0
-17 -10 5 0
4 -6 15 0
10 -19 -14 0
-10 -4 14 0
-11 -6 14 0
8 4 14 0
-12 -14 13 0
-1 -5 4 0
-5 13 7 0
-1 -5 6 0
-2 20 13 0
2 10 5 0
9 -5 -7 0
-20 -13 -14 0
8 9 18 0
-2 -14 6 0
2 13 -16 0
16 8 -13 0
18 12 -7 0
-20 -6 14 0
-10 -14 7 0
9 2 -4 0
16 17 3 0
10 -4 19 0
18 -20 -14 0
-17 13 -16 0
-4 20 -7 0
3 6 -16 0
11 -20 19 0
-1 -18 6 0
18 5 -15 0
2 12 7 0
-1 12 -6 0
-17 18 19 0
-18 -8 -16 0
-9 10 11 0
-17 2 15 0
20 -15 6 0
-18 12 -8 0
-4 19 12 0
-1 18 10 0
-10 13 -15 0
9 19 14 0
8 2 20 0
-17 11 14 0
-10 20 -8 0
-3 -20 7 0
9 13 -14 0
